2 20
650 511 
0 65 55 42 73 23 43 1
1 6 63 14 98 11 64 2
2 79 73 80 44 58 60 2
3 55 94 32 41 3 15 2
4 1 15 77 66 39 80 1
5 4 81 13 27 57 35 2
6 9 16 65 43 73 27 2
7 87 75 27 13 51 22 1
8 46 40 98 15 70 1 1
9 50 81 18 28 4 50 2
10 42 91 27 37 52 95 1
11 6 30 71 41 35 23 2
12 26 15 87 66 92 60 1
13 29 99 78 38 95 53 2
14 54 96 27 22 30 25 2
15 67 28 12 50 5 50 1
16 37 100 82 87 93 61 2
17 29 79 66 74 42 49 1
18 26 72 62 95 5 53 2
19 49 97 45 64 40 30 2
